199
0 54 105 110 99 69 147 176 196 103 
23 75 70 98 64 117 42 66 77 127 
14 13 17 193 50 192 25 173 125 60 
184 183 71 87 134 31 182 139 152 63 
121 187 170 166 59 58 41 191 102 82 
28 22 132 4 56 74 156 165 177 65 
5 72 62 164 150 104 135 163 141 85 
128 155 140 124 29 194 7 146 73 195 
190 84 133 57 68 108 10 198 101 149 
115 180 80 3 43 126 32 97 172 95 
116 143 160 107 33 21 167 27 137 51 
119 47 93 45 131 78 109 46 129 48 
96 16 118 189 49 91 111 38 151 113 
52 44 9 2 162 120 40 76 148 142 
61 100 36 6 1 24 112 12 19 26 
153 144 154 86 88 94 37 161 145 90 
178 35 169 11 30 171 188 179 53 130 
55 92 83 123 197 89 174 181 20 39 
34 114 186 67 159 136 175 8 15 168 
106 138 185 81 122 157 79 158 18 
